; benchmark generated from python API
(set-info :status unknown)
(declare-fun x_epoch () (_ BitVec 32))
(declare-fun x_plus_epoch () (_ BitVec 32))
(declare-fun x_plus_month () (_ BitVec 32))
(declare-fun x_plus_year () (_ BitVec 32))
(declare-fun x_plus_day () (_ BitVec 32))
(assert
 (bvsle (_ bv4294930771 32) x_epoch))
(assert
 (bvsge (_ bv36523 32) x_epoch))
(assert
 (= x_epoch (_ bv7304 32)))
(assert
 (bvsle (_ bv4294930771 32) x_plus_epoch))
(assert
 (bvsge (_ bv36523 32) x_plus_epoch))
(assert
 (let (($x1983 (= x_plus_month (_ bv11 32))))
 (let (($x1555 (= x_plus_month (_ bv9 32))))
 (let (($x3737 (= x_plus_month (_ bv6 32))))
 (let (($x439 (= x_plus_month (_ bv4 32))))
 (let ((?x4527 (ite (or $x439 $x3737 $x1555 $x1983) (_ bv30 32) (_ bv31 32))))
 (let (($x3003 (and (= (bvsmod x_plus_year (_ bv4 32)) (_ bv0 32)) (and (distinct (bvsmod x_plus_year (_ bv100 32)) (_ bv0 32)) true))))
 (let (($x40372 (or $x3003 (= (bvsmod x_plus_year (_ bv400 32)) (_ bv0 32)))))
 (let (($x3343 (= x_plus_month (_ bv2 32))))
 (let (($x3947 (bvsle (_ bv1 32) x_plus_day)))
 (let (($x1191 (bvsle (_ bv1 32) x_plus_month)))
 (let (($x41366 (bvsle (_ bv1900 32) x_plus_year)))
 (and $x41366 (bvsge (_ bv2100 32) x_plus_year) $x1191 (bvsge (_ bv12 32) x_plus_month) $x3947 (bvsle x_plus_day (ite $x3343 (ite $x40372 (_ bv29 32) (_ bv28 32)) ?x4527)))))))))))))))
(assert
 (let (($x3003 (and (= (bvsmod x_plus_year (_ bv4 32)) (_ bv0 32)) (and (distinct (bvsmod x_plus_year (_ bv100 32)) (_ bv0 32)) true))))
 (let (($x40372 (or $x3003 (= (bvsmod x_plus_year (_ bv400 32)) (_ bv0 32)))))
 (let ((?x3602 (ite (= (_ bv2 32) x_plus_month) (ite $x40372 (_ bv31 32) (_ bv31 32)) (ite (= (_ bv1 32) x_plus_month) (ite $x40372 (_ bv0 32) (_ bv0 32)) (_ bv0 32)))))
 (let ((?x4600 (ite (= (_ bv4 32) x_plus_month) (ite $x40372 (_ bv91 32) (_ bv90 32)) (ite (= (_ bv3 32) x_plus_month) (ite $x40372 (_ bv60 32) (_ bv59 32)) ?x3602))))
 (let ((?x41431 (ite (= (_ bv6 32) x_plus_month) (ite $x40372 (_ bv152 32) (_ bv151 32)) (ite (= (_ bv5 32) x_plus_month) (ite $x40372 (_ bv121 32) (_ bv120 32)) ?x4600))))
 (let ((?x38803 (ite (= (_ bv8 32) x_plus_month) (ite $x40372 (_ bv213 32) (_ bv212 32)) (ite (= (_ bv7 32) x_plus_month) (ite $x40372 (_ bv182 32) (_ bv181 32)) ?x41431))))
 (let ((?x68936 (ite (= (_ bv10 32) x_plus_month) (ite $x40372 (_ bv274 32) (_ bv273 32)) (ite (= (_ bv9 32) x_plus_month) (ite $x40372 (_ bv244 32) (_ bv243 32)) ?x38803))))
 (let ((?x40848 (ite (= (_ bv12 32) x_plus_month) (ite $x40372 (_ bv335 32) (_ bv334 32)) (ite (= (_ bv11 32) x_plus_month) (ite $x40372 (_ bv305 32) (_ bv304 32)) ?x68936))))
 (let ((?x4337 (bvadd (bvmul (_ bv365 32) (bvsub x_plus_year (_ bv1 32))) (bvsdiv (bvsub x_plus_year (_ bv1 32)) (_ bv4 32)))))
 (let ((?x1900 (bvadd (bvsub ?x4337 (bvsdiv (bvsub x_plus_year (_ bv1 32)) (_ bv100 32))) (bvsdiv (bvsub x_plus_year (_ bv1 32)) (_ bv400 32)))))
 (= x_plus_epoch (bvsub (bvadd (bvadd ?x1900 ?x40848) (bvsub x_plus_day (_ bv1 32))) (_ bv730179 32))))))))))))))
(assert
 (let ((?x3220 (bvadd x_epoch (_ bv730179 32))))
 (let ((?x3490 (bvsmod ?x3220 (_ bv146097 32))))
 (let ((?x1241 (bvsdiv ?x3490 (_ bv36524 32))))
 (let ((?x4048 (ite (bvsle (_ bv4 32) ?x1241) (_ bv3 32) ?x1241)))
 (let ((?x637 (bvsub ?x3490 (bvmul ?x4048 (_ bv36524 32)))))
 (let ((?x2840 (bvsmod ?x637 (_ bv1461 32))))
 (let ((?x2438 (bvsdiv ?x2840 (_ bv365 32))))
 (let ((?x1528 (ite (bvsle (_ bv4 32) ?x2438) (_ bv3 32) ?x2438)))
 (let ((?x4134 (bvadd (bvadd (bvmul (bvsdiv ?x3220 (_ bv146097 32)) (_ bv400 32)) (bvmul ?x4048 (_ bv100 32))) (bvmul (bvsdiv ?x637 (_ bv1461 32)) (_ bv4 32)))))
 (let ((?x3051 (bvadd (bvadd ?x4134 ?x1528) (_ bv1 32))))
 (let (($x1427 (or (and (= (bvsmod ?x3051 (_ bv4 32)) (_ bv0 32)) (and (distinct (bvsmod ?x3051 (_ bv100 32)) (_ bv0 32)) true)) (= (bvsmod ?x3051 (_ bv400 32)) (_ bv0 32)))))
 (let ((?x4422 (bvsub ?x2840 (bvmul ?x1528 (_ bv365 32)))))
 (let ((?x695 (ite $x1427 (_ bv31 32) (_ bv31 32))))
 (let (($x2913 (bvsge ?x4422 ?x695)))
 (let ((?x4135 (ite $x2913 (bvadd (bvsub ?x4422 ?x695) (_ bv1 32)) (bvadd (bvsub ?x4422 (ite $x1427 (_ bv0 32) (_ bv0 32))) (_ bv1 32)))))
 (let ((?x4361 (ite $x1427 (_ bv60 32) (_ bv59 32))))
 (let (($x3831 (bvsge ?x4422 ?x4361)))
 (let ((?x903 (ite $x1427 (_ bv91 32) (_ bv90 32))))
 (let (($x2882 (bvsge ?x4422 ?x903)))
 (let ((?x4022 (ite $x2882 (bvadd (bvsub ?x4422 ?x903) (_ bv1 32)) (ite $x3831 (bvadd (bvsub ?x4422 ?x4361) (_ bv1 32)) ?x4135))))
 (let ((?x3011 (ite $x1427 (_ bv121 32) (_ bv120 32))))
 (let (($x1819 (bvsge ?x4422 ?x3011)))
 (let ((?x424 (ite $x1427 (_ bv152 32) (_ bv151 32))))
 (let (($x4375 (bvsge ?x4422 ?x424)))
 (let ((?x2475 (ite $x4375 (bvadd (bvsub ?x4422 ?x424) (_ bv1 32)) (ite $x1819 (bvadd (bvsub ?x4422 ?x3011) (_ bv1 32)) ?x4022))))
 (let ((?x1817 (ite $x1427 (_ bv182 32) (_ bv181 32))))
 (let (($x2237 (bvsge ?x4422 ?x1817)))
 (let ((?x4322 (ite $x1427 (_ bv213 32) (_ bv212 32))))
 (let (($x411 (bvsge ?x4422 ?x4322)))
 (let ((?x1494 (ite $x411 (bvadd (bvsub ?x4422 ?x4322) (_ bv1 32)) (ite $x2237 (bvadd (bvsub ?x4422 ?x1817) (_ bv1 32)) ?x2475))))
 (let ((?x1243 (ite $x1427 (_ bv244 32) (_ bv243 32))))
 (let (($x1429 (bvsge ?x4422 ?x1243)))
 (let ((?x3981 (ite $x1427 (_ bv274 32) (_ bv273 32))))
 (let (($x4095 (bvsge ?x4422 ?x3981)))
 (let ((?x2060 (ite $x4095 (bvadd (bvsub ?x4422 ?x3981) (_ bv1 32)) (ite $x1429 (bvadd (bvsub ?x4422 ?x1243) (_ bv1 32)) ?x1494))))
 (let ((?x1715 (ite $x1427 (_ bv305 32) (_ bv304 32))))
 (let (($x892 (bvsge ?x4422 ?x1715)))
 (let ((?x4494 (ite $x1427 (_ bv335 32) (_ bv334 32))))
 (let (($x4126 (bvsge ?x4422 ?x4494)))
 (let ((?x1259 (ite $x4126 (bvadd (bvsub ?x4422 ?x4494) (_ bv1 32)) (ite $x892 (bvadd (bvsub ?x4422 ?x1715) (_ bv1 32)) ?x2060))))
 (let ((?x713 (bvadd (bvmul (_ bv1 32) (_ bv12 32)) (_ bv0 32))))
 (let ((?x833 (ite $x4375 (_ bv6 32) (ite $x1819 (_ bv5 32) (ite $x2882 (_ bv4 32) (ite $x3831 (_ bv3 32) (ite $x2913 (_ bv2 32) (_ bv1 32))))))))
 (let ((?x49313 (ite $x892 (_ bv11 32) (ite $x4095 (_ bv10 32) (ite $x1429 (_ bv9 32) (ite $x411 (_ bv8 32) (ite $x2237 (_ bv7 32) ?x833)))))))
 (let ((?x3018 (ite $x4126 (_ bv12 32) ?x49313)))
 (let ((?x1667 (bvadd ?x3018 ?x713)))
 (let ((?x3658 (bvsub (ite (bvuge ?x1667 (_ bv2147483648 32)) (bvsub ?x1667 (_ bv0 32)) ?x1667) (_ bv1 32))))
 (let ((?x1646 (bvsmod ?x3658 (_ bv12 32))))
 (let ((?x3132 (bvadd ?x1646 (_ bv1 32))))
 (let ((?x3428 (ite (or (= ?x3132 (_ bv4 32)) (= ?x3132 (_ bv6 32)) (= ?x3132 (_ bv9 32)) (= ?x3132 (_ bv11 32))) (_ bv30 32) (_ bv31 32))))
 (let ((?x3859 (bvsdiv ?x3658 (_ bv12 32))))
 (let ((?x1242 (ite (and (bvuge ?x3658 (_ bv2147483648 32)) (and (distinct (_ bv0 32) ?x1646) true)) (bvsub ?x3859 (_ bv1 32)) ?x3859)))
 (let ((?x1336 (bvadd (_ bv0 32) ?x1242)))
 (let ((?x1657 (bvadd ?x3051 ?x1336)))
 (let (($x3718 (or (and (= (bvsmod ?x1657 (_ bv4 32)) (_ bv0 32)) (and (distinct (bvsmod ?x1657 (_ bv100 32)) (_ bv0 32)) true)) (= (bvsmod ?x1657 (_ bv400 32)) (_ bv0 32)))))
 (let ((?x51339 (ite (= ?x3132 (_ bv2 32)) (ite $x3718 (_ bv29 32) (_ bv28 32)) ?x3428)))
 (let ((?x4412 (ite (bvsgt (_ bv1 32) ?x1259) (_ bv1 32) (ite (bvsgt ?x1259 ?x51339) ?x51339 ?x1259))))
 (let ((?x4517 (ite (bvsgt (_ bv1 32) ?x4412) (_ bv1 32) (ite (bvsgt ?x4412 ?x51339) ?x51339 ?x4412))))
 (let ((?x4082 (ite (= (_ bv2 32) ?x3132) (ite $x3718 (_ bv31 32) (_ bv31 32)) (ite (= (_ bv1 32) ?x3132) (ite $x3718 (_ bv0 32) (_ bv0 32)) (_ bv0 32)))))
 (let ((?x1257 (ite (= (_ bv4 32) ?x3132) (ite $x3718 (_ bv91 32) (_ bv90 32)) (ite (= (_ bv3 32) ?x3132) (ite $x3718 (_ bv60 32) (_ bv59 32)) ?x4082))))
 (let ((?x3476 (ite (= (_ bv6 32) ?x3132) (ite $x3718 (_ bv152 32) (_ bv151 32)) (ite (= (_ bv5 32) ?x3132) (ite $x3718 (_ bv121 32) (_ bv120 32)) ?x1257))))
 (let ((?x4626 (ite (= (_ bv8 32) ?x3132) (ite $x3718 (_ bv213 32) (_ bv212 32)) (ite (= (_ bv7 32) ?x3132) (ite $x3718 (_ bv182 32) (_ bv181 32)) ?x3476))))
 (let ((?x4492 (ite (= (_ bv10 32) ?x3132) (ite $x3718 (_ bv274 32) (_ bv273 32)) (ite (= (_ bv9 32) ?x3132) (ite $x3718 (_ bv244 32) (_ bv243 32)) ?x4626))))
 (let ((?x4399 (ite (= (_ bv12 32) ?x3132) (ite $x3718 (_ bv335 32) (_ bv334 32)) (ite (= (_ bv11 32) ?x3132) (ite $x3718 (_ bv305 32) (_ bv304 32)) ?x4492))))
 (let ((?x2463 (bvadd (bvmul (_ bv365 32) (bvsub ?x1657 (_ bv1 32))) (bvsdiv (bvsub ?x1657 (_ bv1 32)) (_ bv4 32)))))
 (let ((?x2110 (bvadd (bvsub ?x2463 (bvsdiv (bvsub ?x1657 (_ bv1 32)) (_ bv100 32))) (bvsdiv (bvsub ?x1657 (_ bv1 32)) (_ bv400 32)))))
 (let ((?x1658 (bvadd (bvadd (bvsub (bvadd (bvadd ?x2110 ?x4399) (bvsub ?x4517 (_ bv1 32))) (_ bv730179 32)) (_ bv0 32)) (_ bv730179 32))))
 (let ((?x3917 (bvsmod ?x1658 (_ bv146097 32))))
 (let ((?x2843 (bvsdiv ?x3917 (_ bv36524 32))))
 (let ((?x3789 (ite (bvsle (_ bv4 32) ?x2843) (_ bv3 32) ?x2843)))
 (let ((?x6825 (bvsub ?x3917 (bvmul ?x3789 (_ bv36524 32)))))
 (let ((?x2947 (bvsmod ?x6825 (_ bv1461 32))))
 (let ((?x1697 (bvsdiv ?x2947 (_ bv365 32))))
 (let ((?x41498 (ite (bvsle (_ bv4 32) ?x1697) (_ bv3 32) ?x1697)))
 (let ((?x1199 (bvadd (bvadd (bvmul (bvsdiv ?x1658 (_ bv146097 32)) (_ bv400 32)) (bvmul ?x3789 (_ bv100 32))) (bvmul (bvsdiv ?x6825 (_ bv1461 32)) (_ bv4 32)))))
 (let ((?x3133 (bvadd (bvadd ?x1199 ?x41498) (_ bv1 32))))
 (let (($x1518 (= (_ bv0 32) (_ bv0 32))))
 (let ((?x3712 (ite $x1518 ?x1657 ?x3133)))
 (= x_plus_year ?x3712)))))))))))))))))))))))))))))))))))))))))))))))))))))))))))))))))))))))))))))))
(assert
 (let ((?x3220 (bvadd x_epoch (_ bv730179 32))))
 (let ((?x3490 (bvsmod ?x3220 (_ bv146097 32))))
 (let ((?x1241 (bvsdiv ?x3490 (_ bv36524 32))))
 (let ((?x4048 (ite (bvsle (_ bv4 32) ?x1241) (_ bv3 32) ?x1241)))
 (let ((?x637 (bvsub ?x3490 (bvmul ?x4048 (_ bv36524 32)))))
 (let ((?x2840 (bvsmod ?x637 (_ bv1461 32))))
 (let ((?x2438 (bvsdiv ?x2840 (_ bv365 32))))
 (let ((?x1528 (ite (bvsle (_ bv4 32) ?x2438) (_ bv3 32) ?x2438)))
 (let ((?x4134 (bvadd (bvadd (bvmul (bvsdiv ?x3220 (_ bv146097 32)) (_ bv400 32)) (bvmul ?x4048 (_ bv100 32))) (bvmul (bvsdiv ?x637 (_ bv1461 32)) (_ bv4 32)))))
 (let ((?x3051 (bvadd (bvadd ?x4134 ?x1528) (_ bv1 32))))
 (let (($x1427 (or (and (= (bvsmod ?x3051 (_ bv4 32)) (_ bv0 32)) (and (distinct (bvsmod ?x3051 (_ bv100 32)) (_ bv0 32)) true)) (= (bvsmod ?x3051 (_ bv400 32)) (_ bv0 32)))))
 (let ((?x4422 (bvsub ?x2840 (bvmul ?x1528 (_ bv365 32)))))
 (let ((?x695 (ite $x1427 (_ bv31 32) (_ bv31 32))))
 (let (($x2913 (bvsge ?x4422 ?x695)))
 (let ((?x4135 (ite $x2913 (bvadd (bvsub ?x4422 ?x695) (_ bv1 32)) (bvadd (bvsub ?x4422 (ite $x1427 (_ bv0 32) (_ bv0 32))) (_ bv1 32)))))
 (let ((?x4361 (ite $x1427 (_ bv60 32) (_ bv59 32))))
 (let (($x3831 (bvsge ?x4422 ?x4361)))
 (let ((?x903 (ite $x1427 (_ bv91 32) (_ bv90 32))))
 (let (($x2882 (bvsge ?x4422 ?x903)))
 (let ((?x4022 (ite $x2882 (bvadd (bvsub ?x4422 ?x903) (_ bv1 32)) (ite $x3831 (bvadd (bvsub ?x4422 ?x4361) (_ bv1 32)) ?x4135))))
 (let ((?x3011 (ite $x1427 (_ bv121 32) (_ bv120 32))))
 (let (($x1819 (bvsge ?x4422 ?x3011)))
 (let ((?x424 (ite $x1427 (_ bv152 32) (_ bv151 32))))
 (let (($x4375 (bvsge ?x4422 ?x424)))
 (let ((?x2475 (ite $x4375 (bvadd (bvsub ?x4422 ?x424) (_ bv1 32)) (ite $x1819 (bvadd (bvsub ?x4422 ?x3011) (_ bv1 32)) ?x4022))))
 (let ((?x1817 (ite $x1427 (_ bv182 32) (_ bv181 32))))
 (let (($x2237 (bvsge ?x4422 ?x1817)))
 (let ((?x4322 (ite $x1427 (_ bv213 32) (_ bv212 32))))
 (let (($x411 (bvsge ?x4422 ?x4322)))
 (let ((?x1494 (ite $x411 (bvadd (bvsub ?x4422 ?x4322) (_ bv1 32)) (ite $x2237 (bvadd (bvsub ?x4422 ?x1817) (_ bv1 32)) ?x2475))))
 (let ((?x1243 (ite $x1427 (_ bv244 32) (_ bv243 32))))
 (let (($x1429 (bvsge ?x4422 ?x1243)))
 (let ((?x3981 (ite $x1427 (_ bv274 32) (_ bv273 32))))
 (let (($x4095 (bvsge ?x4422 ?x3981)))
 (let ((?x2060 (ite $x4095 (bvadd (bvsub ?x4422 ?x3981) (_ bv1 32)) (ite $x1429 (bvadd (bvsub ?x4422 ?x1243) (_ bv1 32)) ?x1494))))
 (let ((?x1715 (ite $x1427 (_ bv305 32) (_ bv304 32))))
 (let (($x892 (bvsge ?x4422 ?x1715)))
 (let ((?x4494 (ite $x1427 (_ bv335 32) (_ bv334 32))))
 (let (($x4126 (bvsge ?x4422 ?x4494)))
 (let ((?x1259 (ite $x4126 (bvadd (bvsub ?x4422 ?x4494) (_ bv1 32)) (ite $x892 (bvadd (bvsub ?x4422 ?x1715) (_ bv1 32)) ?x2060))))
 (let ((?x713 (bvadd (bvmul (_ bv1 32) (_ bv12 32)) (_ bv0 32))))
 (let ((?x833 (ite $x4375 (_ bv6 32) (ite $x1819 (_ bv5 32) (ite $x2882 (_ bv4 32) (ite $x3831 (_ bv3 32) (ite $x2913 (_ bv2 32) (_ bv1 32))))))))
 (let ((?x49313 (ite $x892 (_ bv11 32) (ite $x4095 (_ bv10 32) (ite $x1429 (_ bv9 32) (ite $x411 (_ bv8 32) (ite $x2237 (_ bv7 32) ?x833)))))))
 (let ((?x3018 (ite $x4126 (_ bv12 32) ?x49313)))
 (let ((?x1667 (bvadd ?x3018 ?x713)))
 (let ((?x3658 (bvsub (ite (bvuge ?x1667 (_ bv2147483648 32)) (bvsub ?x1667 (_ bv0 32)) ?x1667) (_ bv1 32))))
 (let ((?x1646 (bvsmod ?x3658 (_ bv12 32))))
 (let ((?x3132 (bvadd ?x1646 (_ bv1 32))))
 (let ((?x3428 (ite (or (= ?x3132 (_ bv4 32)) (= ?x3132 (_ bv6 32)) (= ?x3132 (_ bv9 32)) (= ?x3132 (_ bv11 32))) (_ bv30 32) (_ bv31 32))))
 (let ((?x3859 (bvsdiv ?x3658 (_ bv12 32))))
 (let ((?x1242 (ite (and (bvuge ?x3658 (_ bv2147483648 32)) (and (distinct (_ bv0 32) ?x1646) true)) (bvsub ?x3859 (_ bv1 32)) ?x3859)))
 (let ((?x1336 (bvadd (_ bv0 32) ?x1242)))
 (let ((?x1657 (bvadd ?x3051 ?x1336)))
 (let (($x3718 (or (and (= (bvsmod ?x1657 (_ bv4 32)) (_ bv0 32)) (and (distinct (bvsmod ?x1657 (_ bv100 32)) (_ bv0 32)) true)) (= (bvsmod ?x1657 (_ bv400 32)) (_ bv0 32)))))
 (let ((?x51339 (ite (= ?x3132 (_ bv2 32)) (ite $x3718 (_ bv29 32) (_ bv28 32)) ?x3428)))
 (let ((?x4412 (ite (bvsgt (_ bv1 32) ?x1259) (_ bv1 32) (ite (bvsgt ?x1259 ?x51339) ?x51339 ?x1259))))
 (let ((?x4517 (ite (bvsgt (_ bv1 32) ?x4412) (_ bv1 32) (ite (bvsgt ?x4412 ?x51339) ?x51339 ?x4412))))
 (let ((?x4082 (ite (= (_ bv2 32) ?x3132) (ite $x3718 (_ bv31 32) (_ bv31 32)) (ite (= (_ bv1 32) ?x3132) (ite $x3718 (_ bv0 32) (_ bv0 32)) (_ bv0 32)))))
 (let ((?x1257 (ite (= (_ bv4 32) ?x3132) (ite $x3718 (_ bv91 32) (_ bv90 32)) (ite (= (_ bv3 32) ?x3132) (ite $x3718 (_ bv60 32) (_ bv59 32)) ?x4082))))
 (let ((?x3476 (ite (= (_ bv6 32) ?x3132) (ite $x3718 (_ bv152 32) (_ bv151 32)) (ite (= (_ bv5 32) ?x3132) (ite $x3718 (_ bv121 32) (_ bv120 32)) ?x1257))))
 (let ((?x4626 (ite (= (_ bv8 32) ?x3132) (ite $x3718 (_ bv213 32) (_ bv212 32)) (ite (= (_ bv7 32) ?x3132) (ite $x3718 (_ bv182 32) (_ bv181 32)) ?x3476))))
 (let ((?x4492 (ite (= (_ bv10 32) ?x3132) (ite $x3718 (_ bv274 32) (_ bv273 32)) (ite (= (_ bv9 32) ?x3132) (ite $x3718 (_ bv244 32) (_ bv243 32)) ?x4626))))
 (let ((?x4399 (ite (= (_ bv12 32) ?x3132) (ite $x3718 (_ bv335 32) (_ bv334 32)) (ite (= (_ bv11 32) ?x3132) (ite $x3718 (_ bv305 32) (_ bv304 32)) ?x4492))))
 (let ((?x2463 (bvadd (bvmul (_ bv365 32) (bvsub ?x1657 (_ bv1 32))) (bvsdiv (bvsub ?x1657 (_ bv1 32)) (_ bv4 32)))))
 (let ((?x2110 (bvadd (bvsub ?x2463 (bvsdiv (bvsub ?x1657 (_ bv1 32)) (_ bv100 32))) (bvsdiv (bvsub ?x1657 (_ bv1 32)) (_ bv400 32)))))
 (let ((?x1658 (bvadd (bvadd (bvsub (bvadd (bvadd ?x2110 ?x4399) (bvsub ?x4517 (_ bv1 32))) (_ bv730179 32)) (_ bv0 32)) (_ bv730179 32))))
 (let ((?x3917 (bvsmod ?x1658 (_ bv146097 32))))
 (let ((?x2843 (bvsdiv ?x3917 (_ bv36524 32))))
 (let ((?x3789 (ite (bvsle (_ bv4 32) ?x2843) (_ bv3 32) ?x2843)))
 (let ((?x6825 (bvsub ?x3917 (bvmul ?x3789 (_ bv36524 32)))))
 (let ((?x2947 (bvsmod ?x6825 (_ bv1461 32))))
 (let ((?x1697 (bvsdiv ?x2947 (_ bv365 32))))
 (let ((?x41498 (ite (bvsle (_ bv4 32) ?x1697) (_ bv3 32) ?x1697)))
 (let ((?x1199 (bvadd (bvadd (bvmul (bvsdiv ?x1658 (_ bv146097 32)) (_ bv400 32)) (bvmul ?x3789 (_ bv100 32))) (bvmul (bvsdiv ?x6825 (_ bv1461 32)) (_ bv4 32)))))
 (let ((?x3133 (bvadd (bvadd ?x1199 ?x41498) (_ bv1 32))))
 (let (($x991 (or (and (= (bvsmod ?x3133 (_ bv4 32)) (_ bv0 32)) (and (distinct (bvsmod ?x3133 (_ bv100 32)) (_ bv0 32)) true)) (= (bvsmod ?x3133 (_ bv400 32)) (_ bv0 32)))))
 (let ((?x2569 (ite $x991 (_ bv31 32) (_ bv31 32))))
 (let ((?x46514 (bvsub ?x2947 (bvmul ?x41498 (_ bv365 32)))))
 (let (($x1108 (bvsge ?x46514 ?x2569)))
 (let ((?x2623 (ite $x991 (_ bv60 32) (_ bv59 32))))
 (let (($x1388 (bvsge ?x46514 ?x2623)))
 (let ((?x40719 (ite $x991 (_ bv91 32) (_ bv90 32))))
 (let (($x420 (bvsge ?x46514 ?x40719)))
 (let ((?x2109 (ite $x991 (_ bv121 32) (_ bv120 32))))
 (let (($x2333 (bvsge ?x46514 ?x2109)))
 (let ((?x1938 (ite $x991 (_ bv152 32) (_ bv151 32))))
 (let (($x1248 (bvsge ?x46514 ?x1938)))
 (let ((?x473 (ite $x1248 (_ bv6 32) (ite $x2333 (_ bv5 32) (ite $x420 (_ bv4 32) (ite $x1388 (_ bv3 32) (ite $x1108 (_ bv2 32) (_ bv1 32))))))))
 (let ((?x2670 (ite $x991 (_ bv182 32) (_ bv181 32))))
 (let (($x2271 (bvsge ?x46514 ?x2670)))
 (let ((?x1693 (ite $x991 (_ bv213 32) (_ bv212 32))))
 (let (($x1431 (bvsge ?x46514 ?x1693)))
 (let ((?x2561 (ite $x991 (_ bv244 32) (_ bv243 32))))
 (let (($x618 (bvsge ?x46514 ?x2561)))
 (let ((?x2527 (ite $x991 (_ bv274 32) (_ bv273 32))))
 (let (($x857 (bvsge ?x46514 ?x2527)))
 (let ((?x2924 (ite $x991 (_ bv305 32) (_ bv304 32))))
 (let (($x3881 (bvsge ?x46514 ?x2924)))
 (let ((?x2480 (ite $x3881 (_ bv11 32) (ite $x857 (_ bv10 32) (ite $x618 (_ bv9 32) (ite $x1431 (_ bv8 32) (ite $x2271 (_ bv7 32) ?x473)))))))
 (let ((?x1047 (ite $x991 (_ bv335 32) (_ bv334 32))))
 (let (($x3149 (bvsge ?x46514 ?x1047)))
 (let (($x1518 (= (_ bv0 32) (_ bv0 32))))
 (let ((?x693 (ite $x1518 ?x3132 (ite $x3149 (_ bv12 32) ?x2480))))
 (= x_plus_month ?x693)))))))))))))))))))))))))))))))))))))))))))))))))))))))))))))))))))))))))))))))))))))))))))))))))))))))))
(assert
 (let ((?x3220 (bvadd x_epoch (_ bv730179 32))))
 (let ((?x3490 (bvsmod ?x3220 (_ bv146097 32))))
 (let ((?x1241 (bvsdiv ?x3490 (_ bv36524 32))))
 (let ((?x4048 (ite (bvsle (_ bv4 32) ?x1241) (_ bv3 32) ?x1241)))
 (let ((?x637 (bvsub ?x3490 (bvmul ?x4048 (_ bv36524 32)))))
 (let ((?x2840 (bvsmod ?x637 (_ bv1461 32))))
 (let ((?x2438 (bvsdiv ?x2840 (_ bv365 32))))
 (let ((?x1528 (ite (bvsle (_ bv4 32) ?x2438) (_ bv3 32) ?x2438)))
 (let ((?x4134 (bvadd (bvadd (bvmul (bvsdiv ?x3220 (_ bv146097 32)) (_ bv400 32)) (bvmul ?x4048 (_ bv100 32))) (bvmul (bvsdiv ?x637 (_ bv1461 32)) (_ bv4 32)))))
 (let ((?x3051 (bvadd (bvadd ?x4134 ?x1528) (_ bv1 32))))
 (let (($x1427 (or (and (= (bvsmod ?x3051 (_ bv4 32)) (_ bv0 32)) (and (distinct (bvsmod ?x3051 (_ bv100 32)) (_ bv0 32)) true)) (= (bvsmod ?x3051 (_ bv400 32)) (_ bv0 32)))))
 (let ((?x4422 (bvsub ?x2840 (bvmul ?x1528 (_ bv365 32)))))
 (let ((?x695 (ite $x1427 (_ bv31 32) (_ bv31 32))))
 (let (($x2913 (bvsge ?x4422 ?x695)))
 (let ((?x4135 (ite $x2913 (bvadd (bvsub ?x4422 ?x695) (_ bv1 32)) (bvadd (bvsub ?x4422 (ite $x1427 (_ bv0 32) (_ bv0 32))) (_ bv1 32)))))
 (let ((?x4361 (ite $x1427 (_ bv60 32) (_ bv59 32))))
 (let (($x3831 (bvsge ?x4422 ?x4361)))
 (let ((?x903 (ite $x1427 (_ bv91 32) (_ bv90 32))))
 (let (($x2882 (bvsge ?x4422 ?x903)))
 (let ((?x4022 (ite $x2882 (bvadd (bvsub ?x4422 ?x903) (_ bv1 32)) (ite $x3831 (bvadd (bvsub ?x4422 ?x4361) (_ bv1 32)) ?x4135))))
 (let ((?x3011 (ite $x1427 (_ bv121 32) (_ bv120 32))))
 (let (($x1819 (bvsge ?x4422 ?x3011)))
 (let ((?x424 (ite $x1427 (_ bv152 32) (_ bv151 32))))
 (let (($x4375 (bvsge ?x4422 ?x424)))
 (let ((?x2475 (ite $x4375 (bvadd (bvsub ?x4422 ?x424) (_ bv1 32)) (ite $x1819 (bvadd (bvsub ?x4422 ?x3011) (_ bv1 32)) ?x4022))))
 (let ((?x1817 (ite $x1427 (_ bv182 32) (_ bv181 32))))
 (let (($x2237 (bvsge ?x4422 ?x1817)))
 (let ((?x4322 (ite $x1427 (_ bv213 32) (_ bv212 32))))
 (let (($x411 (bvsge ?x4422 ?x4322)))
 (let ((?x1494 (ite $x411 (bvadd (bvsub ?x4422 ?x4322) (_ bv1 32)) (ite $x2237 (bvadd (bvsub ?x4422 ?x1817) (_ bv1 32)) ?x2475))))
 (let ((?x1243 (ite $x1427 (_ bv244 32) (_ bv243 32))))
 (let (($x1429 (bvsge ?x4422 ?x1243)))
 (let ((?x3981 (ite $x1427 (_ bv274 32) (_ bv273 32))))
 (let (($x4095 (bvsge ?x4422 ?x3981)))
 (let ((?x2060 (ite $x4095 (bvadd (bvsub ?x4422 ?x3981) (_ bv1 32)) (ite $x1429 (bvadd (bvsub ?x4422 ?x1243) (_ bv1 32)) ?x1494))))
 (let ((?x1715 (ite $x1427 (_ bv305 32) (_ bv304 32))))
 (let (($x892 (bvsge ?x4422 ?x1715)))
 (let ((?x4494 (ite $x1427 (_ bv335 32) (_ bv334 32))))
 (let (($x4126 (bvsge ?x4422 ?x4494)))
 (let ((?x1259 (ite $x4126 (bvadd (bvsub ?x4422 ?x4494) (_ bv1 32)) (ite $x892 (bvadd (bvsub ?x4422 ?x1715) (_ bv1 32)) ?x2060))))
 (let ((?x713 (bvadd (bvmul (_ bv1 32) (_ bv12 32)) (_ bv0 32))))
 (let ((?x833 (ite $x4375 (_ bv6 32) (ite $x1819 (_ bv5 32) (ite $x2882 (_ bv4 32) (ite $x3831 (_ bv3 32) (ite $x2913 (_ bv2 32) (_ bv1 32))))))))
 (let ((?x49313 (ite $x892 (_ bv11 32) (ite $x4095 (_ bv10 32) (ite $x1429 (_ bv9 32) (ite $x411 (_ bv8 32) (ite $x2237 (_ bv7 32) ?x833)))))))
 (let ((?x3018 (ite $x4126 (_ bv12 32) ?x49313)))
 (let ((?x1667 (bvadd ?x3018 ?x713)))
 (let ((?x3658 (bvsub (ite (bvuge ?x1667 (_ bv2147483648 32)) (bvsub ?x1667 (_ bv0 32)) ?x1667) (_ bv1 32))))
 (let ((?x1646 (bvsmod ?x3658 (_ bv12 32))))
 (let ((?x3132 (bvadd ?x1646 (_ bv1 32))))
 (let ((?x3428 (ite (or (= ?x3132 (_ bv4 32)) (= ?x3132 (_ bv6 32)) (= ?x3132 (_ bv9 32)) (= ?x3132 (_ bv11 32))) (_ bv30 32) (_ bv31 32))))
 (let ((?x3859 (bvsdiv ?x3658 (_ bv12 32))))
 (let ((?x1242 (ite (and (bvuge ?x3658 (_ bv2147483648 32)) (and (distinct (_ bv0 32) ?x1646) true)) (bvsub ?x3859 (_ bv1 32)) ?x3859)))
 (let ((?x1336 (bvadd (_ bv0 32) ?x1242)))
 (let ((?x1657 (bvadd ?x3051 ?x1336)))
 (let (($x3718 (or (and (= (bvsmod ?x1657 (_ bv4 32)) (_ bv0 32)) (and (distinct (bvsmod ?x1657 (_ bv100 32)) (_ bv0 32)) true)) (= (bvsmod ?x1657 (_ bv400 32)) (_ bv0 32)))))
 (let ((?x51339 (ite (= ?x3132 (_ bv2 32)) (ite $x3718 (_ bv29 32) (_ bv28 32)) ?x3428)))
 (let ((?x4412 (ite (bvsgt (_ bv1 32) ?x1259) (_ bv1 32) (ite (bvsgt ?x1259 ?x51339) ?x51339 ?x1259))))
 (let ((?x4517 (ite (bvsgt (_ bv1 32) ?x4412) (_ bv1 32) (ite (bvsgt ?x4412 ?x51339) ?x51339 ?x4412))))
 (let ((?x4082 (ite (= (_ bv2 32) ?x3132) (ite $x3718 (_ bv31 32) (_ bv31 32)) (ite (= (_ bv1 32) ?x3132) (ite $x3718 (_ bv0 32) (_ bv0 32)) (_ bv0 32)))))
 (let ((?x1257 (ite (= (_ bv4 32) ?x3132) (ite $x3718 (_ bv91 32) (_ bv90 32)) (ite (= (_ bv3 32) ?x3132) (ite $x3718 (_ bv60 32) (_ bv59 32)) ?x4082))))
 (let ((?x3476 (ite (= (_ bv6 32) ?x3132) (ite $x3718 (_ bv152 32) (_ bv151 32)) (ite (= (_ bv5 32) ?x3132) (ite $x3718 (_ bv121 32) (_ bv120 32)) ?x1257))))
 (let ((?x4626 (ite (= (_ bv8 32) ?x3132) (ite $x3718 (_ bv213 32) (_ bv212 32)) (ite (= (_ bv7 32) ?x3132) (ite $x3718 (_ bv182 32) (_ bv181 32)) ?x3476))))
 (let ((?x4492 (ite (= (_ bv10 32) ?x3132) (ite $x3718 (_ bv274 32) (_ bv273 32)) (ite (= (_ bv9 32) ?x3132) (ite $x3718 (_ bv244 32) (_ bv243 32)) ?x4626))))
 (let ((?x4399 (ite (= (_ bv12 32) ?x3132) (ite $x3718 (_ bv335 32) (_ bv334 32)) (ite (= (_ bv11 32) ?x3132) (ite $x3718 (_ bv305 32) (_ bv304 32)) ?x4492))))
 (let ((?x2463 (bvadd (bvmul (_ bv365 32) (bvsub ?x1657 (_ bv1 32))) (bvsdiv (bvsub ?x1657 (_ bv1 32)) (_ bv4 32)))))
 (let ((?x2110 (bvadd (bvsub ?x2463 (bvsdiv (bvsub ?x1657 (_ bv1 32)) (_ bv100 32))) (bvsdiv (bvsub ?x1657 (_ bv1 32)) (_ bv400 32)))))
 (let ((?x1658 (bvadd (bvadd (bvsub (bvadd (bvadd ?x2110 ?x4399) (bvsub ?x4517 (_ bv1 32))) (_ bv730179 32)) (_ bv0 32)) (_ bv730179 32))))
 (let ((?x3917 (bvsmod ?x1658 (_ bv146097 32))))
 (let ((?x2843 (bvsdiv ?x3917 (_ bv36524 32))))
 (let ((?x3789 (ite (bvsle (_ bv4 32) ?x2843) (_ bv3 32) ?x2843)))
 (let ((?x6825 (bvsub ?x3917 (bvmul ?x3789 (_ bv36524 32)))))
 (let ((?x2947 (bvsmod ?x6825 (_ bv1461 32))))
 (let ((?x1697 (bvsdiv ?x2947 (_ bv365 32))))
 (let ((?x41498 (ite (bvsle (_ bv4 32) ?x1697) (_ bv3 32) ?x1697)))
 (let ((?x1199 (bvadd (bvadd (bvmul (bvsdiv ?x1658 (_ bv146097 32)) (_ bv400 32)) (bvmul ?x3789 (_ bv100 32))) (bvmul (bvsdiv ?x6825 (_ bv1461 32)) (_ bv4 32)))))
 (let ((?x3133 (bvadd (bvadd ?x1199 ?x41498) (_ bv1 32))))
 (let (($x991 (or (and (= (bvsmod ?x3133 (_ bv4 32)) (_ bv0 32)) (and (distinct (bvsmod ?x3133 (_ bv100 32)) (_ bv0 32)) true)) (= (bvsmod ?x3133 (_ bv400 32)) (_ bv0 32)))))
 (let ((?x46514 (bvsub ?x2947 (bvmul ?x41498 (_ bv365 32)))))
 (let ((?x2569 (ite $x991 (_ bv31 32) (_ bv31 32))))
 (let (($x1108 (bvsge ?x46514 ?x2569)))
 (let ((?x1138 (ite $x1108 (bvadd (bvsub ?x46514 ?x2569) (_ bv1 32)) (bvadd (bvsub ?x46514 (ite $x991 (_ bv0 32) (_ bv0 32))) (_ bv1 32)))))
 (let ((?x2623 (ite $x991 (_ bv60 32) (_ bv59 32))))
 (let (($x1388 (bvsge ?x46514 ?x2623)))
 (let ((?x40719 (ite $x991 (_ bv91 32) (_ bv90 32))))
 (let (($x420 (bvsge ?x46514 ?x40719)))
 (let ((?x4260 (ite $x420 (bvadd (bvsub ?x46514 ?x40719) (_ bv1 32)) (ite $x1388 (bvadd (bvsub ?x46514 ?x2623) (_ bv1 32)) ?x1138))))
 (let ((?x2109 (ite $x991 (_ bv121 32) (_ bv120 32))))
 (let (($x2333 (bvsge ?x46514 ?x2109)))
 (let ((?x1938 (ite $x991 (_ bv152 32) (_ bv151 32))))
 (let (($x1248 (bvsge ?x46514 ?x1938)))
 (let ((?x3206 (ite $x1248 (bvadd (bvsub ?x46514 ?x1938) (_ bv1 32)) (ite $x2333 (bvadd (bvsub ?x46514 ?x2109) (_ bv1 32)) ?x4260))))
 (let ((?x2670 (ite $x991 (_ bv182 32) (_ bv181 32))))
 (let (($x2271 (bvsge ?x46514 ?x2670)))
 (let ((?x1693 (ite $x991 (_ bv213 32) (_ bv212 32))))
 (let (($x1431 (bvsge ?x46514 ?x1693)))
 (let ((?x2366 (ite $x1431 (bvadd (bvsub ?x46514 ?x1693) (_ bv1 32)) (ite $x2271 (bvadd (bvsub ?x46514 ?x2670) (_ bv1 32)) ?x3206))))
 (let ((?x2561 (ite $x991 (_ bv244 32) (_ bv243 32))))
 (let (($x618 (bvsge ?x46514 ?x2561)))
 (let ((?x2527 (ite $x991 (_ bv274 32) (_ bv273 32))))
 (let (($x857 (bvsge ?x46514 ?x2527)))
 (let ((?x552 (ite $x857 (bvadd (bvsub ?x46514 ?x2527) (_ bv1 32)) (ite $x618 (bvadd (bvsub ?x46514 ?x2561) (_ bv1 32)) ?x2366))))
 (let ((?x2924 (ite $x991 (_ bv305 32) (_ bv304 32))))
 (let (($x3881 (bvsge ?x46514 ?x2924)))
 (let ((?x1047 (ite $x991 (_ bv335 32) (_ bv334 32))))
 (let (($x3149 (bvsge ?x46514 ?x1047)))
 (let ((?x2285 (ite $x3149 (bvadd (bvsub ?x46514 ?x1047) (_ bv1 32)) (ite $x3881 (bvadd (bvsub ?x46514 ?x2924) (_ bv1 32)) ?x552))))
 (let (($x1518 (= (_ bv0 32) (_ bv0 32))))
 (let ((?x37591 (ite $x1518 ?x4517 ?x2285)))
 (= x_plus_day ?x37591)))))))))))))))))))))))))))))))))))))))))))))))))))))))))))))))))))))))))))))))))))))))))))))))))))))))))))))
(assert
 (= x_plus_epoch (_ bv7669 32)))
(check-sat)
